BEGIN IONS
TITLE=MSDIAL_247023
SMILES=C=C1C(N)CC2CC1C2(C)C
PEPMASS=152.143375964
MSLEVEL=1
ADDUCTIONNAME=M+H
END IONS
BEGIN IONS
TITLE=MSDIAL_247023
PEPMASS=152.143375964
MSLEVEL=2
41.038 1.6
55.054 2.5
57.07 3.0
69.07 1.2
77.038 4.1
79.054 94.9
81.07 1.2
91.054 18.5
93.07 100.0
105.06 3.7
107.085 26.4
135.117 2.3
END IONS
BEGIN IONS
TITLE=MSDIAL_284562
SMILES=C=C1C(N)CC2CC1C2(C)C
PEPMASS=152.143375964
MSLEVEL=1
ADDUCTIONNAME=M+H
END IONS
BEGIN IONS
TITLE=MSDIAL_284562
PEPMASS=152.143375964
MSLEVEL=2
52.004 63.5
52.098 36.5
52.126 36.5
54.036 76.5
54.065 64.7
56.051 100.0
56.124 74.1
59.073 36.5
60.001 63.5
64.021 47.1
68.052 65.9
70.055 98.8
71.085 85.9
72.082 55.3
73.005 64.7
76.004 55.3
77.041 1.2
78.148 55.3
79.059 2.0
82.061 41.2
84.083 36.5
85.02 36.5
89.039 55.3
92.062 90.6
93.075 1.5
96.082 68.2
98.086 36.5
101.141 36.5
103.054 55.3
104.052 65.9
106.075 88.2
107.087 1.2
108.081 62.3
109.102 36.5
110.092 74.1
114.038 61.2
116.059 71.8
120.066 95.3
121.09 60.0
122.095 100.0
123.013 36.5
123.089 55.3
123.117 62.3
124.025 74.1
124.111 55.3
127.053 88.2
132.071 55.3
133.08 55.3
136.005 74.1
136.109 60.0
140.056 74.1
141.066 49.4
143.091 61.2
144.091 55.3
145.084 55.3
146.096 65.9
147.111 55.3
148.112 61.2
149.133 55.3
END IONS
BEGIN IONS
TITLE=MoNA_223307
SMILES=C=C1C(N)CC2CC1C2(C)C
PEPMASS=152.143376
MSLEVEL=1
ADDUCTIONNAME=M+H
END IONS
BEGIN IONS
TITLE=MoNA_223307
PEPMASS=152.143376
MSLEVEL=2
41.038442 1.552
55.054089 2.542
57.069716 3.029
69.06977 1.197
77.038299 4.11
79.053907 94.879
81.069935 1.23
91.053973 18.514
93.069611 100.0
105.059896 3.663
107.085262 26.36
135.116952 2.344
END IONS
BEGIN IONS
TITLE=MoNA_124461
SMILES=C=C1C(N)CC2CC1C2(C)C
PEPMASS=152.143376
MSLEVEL=1
ADDUCTIONNAME=M+H
END IONS
BEGIN IONS
TITLE=MoNA_124461
PEPMASS=152.143376
MSLEVEL=2
41.038747 0.175
51.023292 0.584
53.039057 0.481
55.054757 0.53
57.070488 1.313
58.081589 0.541
65.040052 3.0
67.055012 0.375
69.071532 0.78
77.040796 3.925
78.048738 0.657
79.055887 11.147
81.07244 0.178
82.067139 2.232
91.057142 8.388
92.06458 0.61
93.072979 100.0
94.068335 0.313
95.054932 5.847
96.084412 0.259
103.057776 0.236
105.069406 2.007
106.069176 0.206
107.09029 9.271
108.087494 1.234
109.069077 0.392
119.090267 0.71
120.098559 0.036
122.10123 0.192
123.10977 0.033
134.114965 0.905
135.124569 11.524
136.11993 6.633
END IONS
BEGIN IONS
TITLE=MoNA_178296
SMILES=C=C1C(N)CC2CC1C2(C)C
PEPMASS=152.143376
MSLEVEL=1
ADDUCTIONNAME=M+H
END IONS
BEGIN IONS
TITLE=MoNA_178296
PEPMASS=152.143376
MSLEVEL=2
50.015629 0.514
51.022043 0.593
52.003766 63.532
52.025752 0.002
52.09765 36.479
52.12642 36.479
53.038979 0.176
54.036089 76.472
54.064822 64.714
55.055017 0.689
56.051367 100.0
56.124448 74.119
57.069788 0.47
58.064716 0.007
59.073234 36.479
60.000745 63.532
61.00785 0.001
62.012961 0.002
63.022435 0.006
64.02088 47.055
65.039697 0.433
66.043492 0.001
67.055085 0.36
68.052218 65.885
69.070193 0.333
70.055473 98.828
71.085289 85.888
72.081759 55.288
73.004926 64.714
74.015816 0.001
75.010226 0.002
76.00388 55.288
76.042692 0.001
77.041006 1.245
78.04546 0.082
78.147721 55.288
79.059335 1.968
80.066732 0.001
81.071115 0.42
82.06138 41.176
84.083285 36.479
84.105173 0.002
85.020173 36.479
89.038859 55.288
91.054371 0.093
92.062062 90.595
93.074762 1.527
94.071935 0.002
96.081681 68.229
98.085699 36.479
101.140559 36.479
103.053894 55.288
104.051814 65.885
105.056012 0.013
106.07515 88.231
107.087459 1.219
108.080703 62.35
109.102473 36.479
110.091516 74.119
114.038116 61.178
115.054183 0.009
116.058833 71.765
117.068902 0.008
118.063609 0.001
119.069428 0.018
120.066262 95.292
120.091682 0.012
121.089796 59.996
122.095247 100.0
123.013078 36.479
123.088622 55.288
123.116623 62.35
124.025 74.119
124.111077 55.288
125.038656 0.002
126.046897 0.001
127.053479 88.231
128.058571 0.002
129.066257 0.006
130.066945 0.006
131.081507 0.001
132.071466 55.288
133.079857 55.288
133.10159 0.003
135.118768 0.008
136.005046 74.119
136.108673 59.996
140.056255 74.119
141.06582 49.409
143.090584 61.178
144.090543 55.288
145.084015 55.288
146.095602 65.885
147.110518 55.288
148.112065 61.178
149.132747 55.288
150.128034 0.002
END IONS
