BEGIN IONS
TITLE=GNPS_930629
SMILES=CC(NC(=O)C(NC(=O)CCCCCCCCCCCC(=O)O)C(C)O)C(=O)O
PEPMASS=417.259
MSLEVEL=1
ADDUCTIONNAME=M+H
END IONS
BEGIN IONS
TITLE=GNPS_930629
PEPMASS=417.259
MSLEVEL=2
50.04229 0.56
56.05022 1.914
58.13945 0.624
58.72504 0.597
67.05481 1.807
69.070427 2.667
69.639687 0.704
71.677063 0.602
75.132828 0.6
79.054657 1.073
81.069946 0.801
82.065483 1.163
83.085854 0.968
84.044907 1.47
84.081299 49.827
84.085648 0.818
92.546921 1.648
92.553307 3.685
93.070183 2.289
93.883392 0.715
95.085716 1.573
97.065002 1.8
98.060303 2.036
100.075912 5.578
107.085487 4.402
109.101158 1.087
110.060417 3.332
111.080322 1.11
112.112038 3.166
121.102158 0.748
127.086533 23.665
128.060699 1.456
128.070511 58.323
129.102158 1.948
134.663361 0.692
135.116623 9.328
151.315948 0.74
152.143417 6.654
153.126724 3.423
156.101654 100.0
163.112289 0.795
168.334122 0.79
172.985657 0.672
173.091888 10.406
173.128448 3.999
180.138382 1.888
182.459335 0.683
198.148483 28.281
198.166672 1.546
217.143585 4.006
219.133347 6.159
263.210083 0.954
300.808472 0.685
307.202026 1.703
309.21701 2.004
311.519775 0.925
323.206818 0.784
325.211182 1.867
347.118378 0.713
353.205322 9.053
375.075317 0.888
399.247284 1.092
END IONS
BEGIN IONS
TITLE=GNPS_930627
SMILES=CC(NC(=O)C(NC(=O)CCCCCCCCCCCC(=O)O)C(C)O)C(=O)O
PEPMASS=417.259
MSLEVEL=1
ADDUCTIONNAME=M+H
END IONS
BEGIN IONS
TITLE=GNPS_930627
PEPMASS=417.259
MSLEVEL=2
52.72287 0.287
56.05032 0.461
58.625641 0.356
67.05468 1.104
69.070457 1.476
82.065598 0.593
84.044884 2.5
84.081261 100.0
86.096741 0.497
90.055527 0.622
92.551079 3.825
93.070229 0.792
95.085953 0.491
97.065514 0.528
101.647789 0.492
107.08567 0.975
107.421097 0.362
110.060081 4.427
111.091888 0.537
117.335831 0.398
127.086807 1.527
128.070312 5.853
129.102554 1.583
130.050003 1.189
135.116257 1.992
152.143311 1.83
153.127533 0.798
155.081085 4.166
156.065018 1.994
156.101898 1.731
173.091812 2.143
198.148453 3.262
199.32814 0.448
201.123413 0.428
202.071075 0.646
217.143677 0.507
219.09935 0.562
219.13327 2.738
264.195251 6.217
281.221344 0.665
282.205627 14.341
283.204956 0.484
307.200623 3.32
325.21344 0.929
353.206299 8.32
394.152649 0.578
END IONS
BEGIN IONS
TITLE=GNPS_930628
SMILES=CC(NC(=O)C(NC(=O)CCCCCCCCCCCC(=O)O)C(C)O)C(=O)O
PEPMASS=417.259
MSLEVEL=1
ADDUCTIONNAME=M+H
END IONS
BEGIN IONS
TITLE=GNPS_930628
PEPMASS=417.259
MSLEVEL=2
60.044922 27.473
62.393532 8.203
72.039047 8.106
72.08139 57.477
79.452026 7.766
86.09687 79.688
87.175148 7.68
92.550278 20.167
93.793182 8.101
106.049713 22.324
115.205238 8.522
118.085861 17.757
168.635178 8.076
222.148575 24.68
236.163223 27.808
236.345627 8.085
240.158752 14.104
245.811218 9.981
254.174591 16.41
266.210724 100.0
284.220123 22.549
286.16452 14.586
300.178436 13.818
353.241882 20.285
371.25351 13.223
376.762909 8.702
399.248657 24.329
END IONS
BEGIN IONS
TITLE=GNPS_930630
SMILES=CC(NC(=O)C(NC(=O)CCCCCCCCCCCC(=O)O)C(C)O)C(=O)O
PEPMASS=439.241
MSLEVEL=1
ADDUCTIONNAME=M+Na
END IONS
BEGIN IONS
TITLE=GNPS_930630
PEPMASS=439.241
MSLEVEL=2
50.350239 0.891
52.674911 0.973
61.158482 1.147
81.22879 1.033
84.162308 1.031
92.552322 6.116
120.080833 1.935
121.083931 1.299
122.106621 1.026
123.052361 1.519
124.036621 2.188
126.662743 1.048
148.11174 1.226
152.03125 1.957
156.101715 2.201
157.10495 1.309
172.548523 1.079
192.101456 2.041
193.105896 2.054
195.072983 6.907
209.91069 1.218
220.131439 1.259
223.068375 2.488
224.052216 3.087
241.078979 23.555
245.81842 0.981
304.188934 1.655
321.176086 1.811
321.213959 54.342
322.199036 4.703
349.171143 1.603
393.19696 1.56
428.290741 1.227
439.240692 100.0
END IONS
