BEGIN IONS
TITLE=MSDIAL_246324
SMILES=CC(O)=NCCCCCN=C(C)O
PEPMASS=187.144104236
MSLEVEL=1
ADDUCTIONNAME=M+H
END IONS
BEGIN IONS
TITLE=MSDIAL_246324
PEPMASS=187.144104236
MSLEVEL=2
86.096 9.0
88.021 100.0
128.106 8.3
145.133 5.9
END IONS
BEGIN IONS
TITLE=MoNA_222585
SMILES=CC(O)=NCCCCCN=C(C)O
PEPMASS=187.1441043
MSLEVEL=1
ADDUCTIONNAME=M+H
END IONS
BEGIN IONS
TITLE=MoNA_222585
PEPMASS=187.1441043
MSLEVEL=2
43.017262 0.137
57.032927 0.02
60.043727 0.413
69.069181 0.464
72.045241 0.698
86.095647 8.956
88.020957 100.0
103.12249 0.126
113.107085 0.007
114.09085 0.489
128.106489 8.284
131.117513 0.127
145.133219 5.918
END IONS
BEGIN IONS
TITLE=MoNA_124486
SMILES=CC(O)=NCCCCCN=C(C)O
PEPMASS=187.1441043
MSLEVEL=1
ADDUCTIONNAME=M+H
END IONS
BEGIN IONS
TITLE=MoNA_124486
PEPMASS=187.1441043
MSLEVEL=2
43.018581 3.661
46.066456 2.653
60.045289 0.225
65.040071 0.097
69.071513 0.277
72.082551 0.931
86.098868 100.0
88.024486 0.171
89.041996 0.119
91.057332 0.193
102.050784 0.116
103.162343 0.144
104.995856 0.29
110.100626 0.144
113.111252 0.518
114.096303 3.995
115.059312 0.05
115.094482 0.401
116.065896 0.114
117.074023 0.045
126.051466 0.067
127.12918 0.334
128.113195 58.165
129.076296 0.114
131.076581 0.111
131.162217 1.241
141.077261 0.094
143.091842 0.045
145.141602 20.568
151.082975 0.082
153.076123 0.062
169.112397 0.268
169.144003 7.938
175.13638 0.05
END IONS
BEGIN IONS
TITLE=MoNA_215023
SMILES=CC(O)=NCCCCCN=C(C)O
PEPMASS=187.144
MSLEVEL=1
ADDUCTIONNAME=M+H
END IONS
BEGIN IONS
TITLE=MoNA_215023
PEPMASS=187.144
MSLEVEL=2
86.018784 4.496
86.095505 100.0
87.096107 2.399
101.036049 3.742
115.971222 2.042
128.107513 51.042
129.109238 6.127
145.076431 1.549
145.133957 80.551
145.310242 1.316
146.137222 8.155
176.968018 1.316
187.14476 2.961
END IONS
BEGIN IONS
TITLE=MSDIAL_295673
SMILES=CC(O)=NCCCCCN=C(C)O
PEPMASS=209.126048516
MSLEVEL=1
ADDUCTIONNAME=M+Na
END IONS
BEGIN IONS
TITLE=MSDIAL_295673
PEPMASS=209.126048516
MSLEVEL=2
100.109 1.5
100.999 1.0
116.032 1.5
131.543 7.3
132.101 3.3
133.086 1.4
133.948 1.1
134.045 2.5
134.966 3.3
148.988 1.2
153.016 1.1
162.969 2.7
164.069 1.8
168.916 5.5
170.544 1.0
170.915 1.2
178.942 1.3
180.95 1.0
195.119 2.0
209.126 100.0
END IONS
BEGIN IONS
TITLE=MoNA_6093
SMILES=CC(O)=NCCCCCN=C(C)O
PEPMASS=209.1257
MSLEVEL=1
ADDUCTIONNAME=M+Na
END IONS
BEGIN IONS
TITLE=MoNA_6093
PEPMASS=209.1257
MSLEVEL=2
100.1136 28.761
100.9107 8.28
101.0774 5.318
101.9222 17.098
101.9629 7.127
102.9253 11.794
103.0026 12.587
104.0443 5.366
106.9318 7.817
107.0403 17.159
109.032 10.053
109.0591 10.71
114.2104 5.542
116.4816 5.883
116.9092 11.764
116.9687 55.633
118.062 10.038
118.9221 23.737
119.0446 10.495
119.9594 11.263
120.9215 10.098
120.9831 21.778
121.0132 12.119
121.9865 6.926
122.9997 14.976
123.5253 7.974
128.9406 15.426
130.957 15.964
131.0642 4.98
131.544 18.518
131.9454 12.867
132.0985 10.155
132.8978 24.407
132.9507 50.235
133.0869 9.257
133.9454 10.466
134.0516 13.601
134.0742 9.033
134.9634 57.635
135.9897 7.258
137.0683 9.546
137.99 6.06
140.0109 7.713
140.0691 9.615
140.8471 9.78
140.9407 5.107
142.0781 16.477
146.056 6.106
146.9954 15.249
148.9079 7.113
148.953 8.468
149.0379 6.47
149.98 12.151
150.0569 6.994
150.9421 8.813
153.0188 15.985
153.8491 9.417
153.8905 36.362
155.8657 6.154
156.1103 9.927
157.0127 5.925
160.0197 6.214
162.0626 9.698
162.9678 15.043
163.0511 11.699
164.0712 79.166
168.9175 47.125
170.9168 12.953
174.9412 10.555
175.0084 6.609
176.944 9.733
180.9353 5.393
192.1095 37.147
193.0949 6.754
206.9526 6.079
209.1229 100.0
END IONS
BEGIN IONS
TITLE=MoNA_6094
SMILES=CC(O)=NCCCCCN=C(C)O
PEPMASS=209.1257
MSLEVEL=1
ADDUCTIONNAME=M+Na
END IONS
BEGIN IONS
TITLE=MoNA_6094
PEPMASS=209.1257
MSLEVEL=2
100.1091 1.501
100.9988 1.0
116.0323 1.456
131.5429 7.259
132.1011 3.25
133.0861 1.447
133.9484 1.077
134.0449 2.504
134.966 3.314
148.9881 1.235
153.0161 1.077
162.969 2.667
164.0686 1.774
168.916 5.534
170.5444 1.028
170.9152 1.248
178.9424 1.271
180.9504 1.029
195.1194 2.021
209.1258 100.0
END IONS
BEGIN IONS
TITLE=GNPS_1461179
SMILES=CC(O)=NCCCCCN=C(C)O
PEPMASS=225.051
MSLEVEL=1
ADDUCTIONNAME=M+K
END IONS
BEGIN IONS
TITLE=GNPS_1461179
PEPMASS=225.051
MSLEVEL=2
111.879997 100.0
137.0 16.641
160.979996 20.325
180.029999 26.221
185.649994 12.646
197.740005 33.069
198.990005 26.593
END IONS
BEGIN IONS
TITLE=MoNA_43987
SMILES=CC(O)=NCCCCCN=C(C)O
PEPMASS=225.050678959599
MSLEVEL=1
ADDUCTIONNAME=M+K
END IONS
BEGIN IONS
TITLE=MoNA_43987
PEPMASS=225.050678959599
MSLEVEL=2
111.88 100.0
137.0 16.641
160.98 20.325
180.03 26.221
185.65 12.646
197.74 33.069
198.99 26.593
END IONS
